Version identifier: 22.1.1.0 | 2022-11-28 | 9160aff4d
CPXPARAM_Read_DataCheck                          1
CPXPARAM_MIP_Cuts_Covers                         1
CPXPARAM_MIP_Cuts_FlowCovers                     1
CPXPARAM_MIP_Cuts_MIRCut                         1
CPXPARAM_TimeLimit                               265
Tried aggregator 1 time.
MIP Presolve eliminated 4 rows and 0 columns.
MIP Presolve added 6 rows and 0 columns.
MIP Presolve modified 12626 coefficients.
Reduced MIP has 3875 rows, 5606 columns, and 30475 nonzeros.
Reduced MIP has 5547 binaries, 0 generals, 0 SOSs, and 0 indicators.
Presolve time = 0.01 sec. (20.33 ticks)
Probing time = 0.01 sec. (4.77 ticks)
Tried aggregator 1 time.
Detecting symmetries...
Reduced MIP has 3875 rows, 5606 columns, and 30475 nonzeros.
Reduced MIP has 5547 binaries, 0 generals, 0 SOSs, and 0 indicators.
Presolve time = 0.01 sec. (16.67 ticks)
Probing time = 0.00 sec. (4.53 ticks)
Clique table members: 18156.
MIP emphasis: balance optimality and feasibility.
MIP search method: dynamic search.
Parallel mode: deterministic, using up to 12 threads.
Root relaxation solution time = 0.06 sec. (52.92 ticks)

        Nodes                                         Cuts/
   Node  Left     Objective  IInf  Best Integer    Best Bound    ItCnt     Gap

      0     0     1471.3079   134                   1471.3079      886         
      0     0     1841.1653    96                   Cuts: 138     1060         
      0     0     1879.1028   101                   Cuts: 128     1215         
      0     0     1893.3158   101                   Cuts: 401     1329         
      0     0     1898.3125    92                   Cuts: 145     1459         
      0     0     1898.3125    98                   Cuts: 318     1494         
Detecting symmetries...
*     0+    0                        58042.0000     1898.3125            96.73%
*     0+    0                        35482.0000     1898.3125            94.65%
      0     0     1898.3125    99    35482.0000       Cuts: 6     1529   94.65%
*     0+    0                        14472.0000     1898.3125            86.88%
*     0+    0                         4558.0000     1898.3125            58.35%
      0     0  -1.00000e+75     0     4558.0000     1898.3125     1529   58.35%
*     0+    0                         2404.0000     1898.3125            21.04%
*     0+    0                         2321.0000     1898.3125            18.21%
*     0+    0                         2303.0000     1898.3125            17.57%
      0     0  -1.00000e+75     0     2303.0000     1898.3125     1529   17.57%
Detecting symmetries...

Repeating presolve.
Tried aggregator 1 time.
MIP Presolve eliminated 2003 rows and 2065 columns.
MIP Presolve modified 21 coefficients.
Reduced MIP has 1872 rows, 3541 columns, and 16268 nonzeros.
Reduced MIP has 3482 binaries, 0 generals, 0 SOSs, and 0 indicators.
Presolve time = 0.01 sec. (9.52 ticks)
Probing time = 0.01 sec. (3.88 ticks)
Tried aggregator 1 time.
Detecting symmetries...
Reduced MIP has 1872 rows, 3541 columns, and 16268 nonzeros.
Reduced MIP has 3482 binaries, 0 generals, 0 SOSs, and 0 indicators.
Presolve time = 0.01 sec. (9.46 ticks)
Represolve time = 0.04 sec. (41.79 ticks)
Probing time = 0.01 sec. (3.86 ticks)
Clique table members: 10452.
MIP emphasis: balance optimality and feasibility.
MIP search method: dynamic search.
Parallel mode: deterministic, using up to 12 threads.
Root relaxation solution time = 0.05 sec. (67.03 ticks)

        Nodes                                         Cuts/
   Node  Left     Objective  IInf  Best Integer    Best Bound    ItCnt     Gap

*     0+    0                         2303.0000     1898.3125            17.57%
      0     0     1898.3125    96     2303.0000     1898.3125     2647   17.57%
      0     0     1898.3125    90     2303.0000      Cuts: 69     2682   17.57%
      0     0     1900.0909   110     2303.0000      Cuts: 30     2794   17.49%
      0     0     1900.0909   110     2303.0000      Cuts: 73     2856   17.49%
      0     0     1900.0909   113     2303.0000      Cuts: 31     2915   17.49%
*     0+    0                         2223.0000     1900.0909            14.53%
*     0+    0                         2125.0000     1900.0909            10.58%
      0     0  -1.00000e+75     0     2125.0000     1900.0909     2915   10.58%
Detecting symmetries...
      0     2     1900.0909   108     2125.0000     1900.0909     2915   10.58%
Elapsed time = 2.37 sec. (2017.06 ticks, tree = 0.02 MB, solutions = 9)
*    99+    9                         2056.0000     1904.0000             7.39%
    301   218     1922.2002    19     2056.0000     1904.8261    16049    7.35%
*  1000   684      integral     0     2016.0000     1904.8261    31622    5.51%
   1813  1094     1926.3069    29     2016.0000     1906.3333    49107    5.44%
*  2051+ 1348                         1983.0000     1906.7500             3.85%
   2630  1344    infeasible           1983.0000     1908.1536    71620    3.77%
*  2775  1405      integral     0     1971.0000     1908.1536    72926    3.19%
*  3203  1494      integral     0     1967.0000     1908.8570    91998    2.96%
   3274  1425     1918.7060    36     1967.0000     1908.8570    93077    2.96%
   4043  1869        cutoff           1967.0000     1911.1517   110780    2.84%

Performing restart 1

Repeating presolve.
Tried aggregator 2 times.
MIP Presolve eliminated 1128 rows and 1679 columns.
MIP Presolve added 8 rows and 0 columns.
MIP Presolve modified 632 coefficients.
Aggregator did 5 substitutions.
Reduced MIP has 747 rows, 1857 columns, and 6623 nonzeros.
Reduced MIP has 1798 binaries, 0 generals, 0 SOSs, and 0 indicators.
Presolve time = 0.01 sec. (10.94 ticks)
Tried aggregator 1 time.
MIP Presolve eliminated 0 rows and 2 columns.
MIP Presolve modified 259 coefficients.
Reduced MIP has 747 rows, 1855 columns, and 6606 nonzeros.
Reduced MIP has 1796 binaries, 0 generals, 0 SOSs, and 0 indicators.
Presolve time = 0.00 sec. (4.78 ticks)
Represolve time = 0.04 sec. (39.57 ticks)
   4045     0     1902.0061   109     1967.0000      Cuts: 42   118383    2.68%
   4045     0     1904.1143   101     1967.0000      Cuts: 83   118475    2.68%
   4045     0     1905.5125   131     1967.0000      Cuts: 66   118592    2.68%
   4045     0     1908.2060   125     1967.0000     Cuts: 125   118750    2.68%
   4045     0     1908.9126   102     1967.0000      Cuts: 90   118886    2.68%
   4045     0     1909.5046   118     1967.0000      Cuts: 62   118988    2.68%
   4045     0     1909.5046   119     1967.0000      Cuts: 65   119014    2.68%
   4045     0     1909.6753   125     1967.0000      Cuts: 23   119074    2.68%
   4045     0     1909.8522   123     1967.0000      Cuts: 19   119133    2.68%
*  4045+    0                         1927.0000     1914.2299             0.66%
   4045     0     1910.0357   143     1927.0000      Cuts: 50   119200    0.12%
   4045     0        cutoff           1927.0000     1927.0000   119200    0.00%

GUB cover cuts applied:  27
Clique cuts applied:  1
Cover cuts applied:  26
Implied bound cuts applied:  5
Flow cuts applied:  1
Mixed integer rounding cuts applied:  62
Zero-half cuts applied:  31
Lift and project cuts applied:  3
Gomory fractional cuts applied:  14

Root node processing (before b&c):
  Real time             =    2.36 sec. (2016.25 ticks)
Parallel b&c, 12 threads:
  Real time             =    3.09 sec. (2379.39 ticks)
  Sync time (average)   =    0.46 sec.
  Wait time (average)   =    0.00 sec.
                          ------------
Total (root+branch&cut) =    5.46 sec. (4395.64 ticks)
